RAW/D/fspd-mid/CON8-2.vrpspd_seed-1.out
712.8855	0.763	211.917
