RAW/D/fspd-mid/CON8-2.vrpspd_seed-1.sol
Route #1: 39 10 45 20 26
Route #2: 50 32 4 16 13
Route #3: 29 44 14 18
Route #4: 9 11 5 40 21
Route #5: 30 33 41 47 34
Route #6: 25 27 38 19 17 1
Route #7: 23 31 43 3 15
Route #8: 49 7 12 36 2 28 24
Route #9: 35 42 46 22 37 6 8 48
Cost 7128855.000000